c description: Random 3-CNF over 15 variables and 110 clauses
c generator: CNFgen (0.9.0)
c copyright: (C) 2012-2020 Massimo Lauria <massimo.lauria@uniroma1.it>
c url: https://massimolauria.net/cnfgen
c
p cnf 15 110
-1 9 12 0
-1 5 14 0
-1 11 13 0
-5 -7 11 0
2 -6 -7 0
-2 -13 15 0
2 -10 -13 0
2 -11 12 0
4 8 -9 0
3 8 -15 0
-7 11 -12 0
-2 -6 11 0
1 2 -13 0
-4 -10 -13 0
-5 6 10 0
-4 12 -15 0
-9 12 13 0
2 6 -13 0
-3 4 -7 0
-2 8 -15 0
-3 7 9 0
4 6 7 0
-3 12 14 0
6 -13 -15 0
3 10 -14 0
1 4 8 0
8 10 11 0
9 10 -14 0
-5 8 -15 0
-1 -7 -10 0
-4 5 8 0
2 8 13 0
-3 -6 13 0
-2 7 10 0
2 -8 13 0
-8 9 -12 0
1 10 11 0
-4 -10 -12 0
-1 9 -12 0
3 4 7 0
-3 11 -12 0
-9 -12 -14 0
-2 -5 8 0
-1 -13 -15 0
-2 4 -13 0
3 -8 10 0
-1 -5 9 0
-1 -5 12 0
7 10 11 0
-11 -13 15 0
-9 -11 -15 0
-1 -2 -5 0
-4 -12 -13 0
1 13 14 0
1 -8 15 0
-4 9 11 0
3 8 12 0
-2 -14 15 0
1 -4 -5 0
5 6 11 0
2 -4 8 0
4 -10 -14 0
12 13 -15 0
-3 9 -11 0
-5 13 -14 0
9 10 12 0
3 12 -13 0
-5 8 12 0
3 8 -12 0
-2 3 -11 0
6 -8 -13 0
6 7 -13 0
-2 4 15 0
5 -8 -10 0
-7 -8 11 0
-2 8 9 0
-1 6 -9 0
9 -11 14 0
-4 14 15 0
3 -5 -15 0
7 13 -15 0
4 10 -13 0
8 9 14 0
-7 8 12 0
3 -6 12 0
-1 -5 13 0
-1 11 -13 0
-2 9 14 0
-2 -8 -11 0
-8 -10 -15 0
-1 5 -10 0
5 -6 14 0
-9 12 15 0
-3 -4 -7 0
4 -9 13 0
4 12 13 0
-1 3 4 0
6 -10 12 0
-1 8 14 0
4 8 13 0
1 -9 10 0
-3 11 14 0
8 9 15 0
-6 -12 13 0
-4 -6 8 0
-1 -3 -7 0
-2 11 -12 0
6 9 -15 0
6 7 -15 0
1 -3 4 0